# Objective value = 37.0
xobj 37.0
x0_r1 3.599551212651875e-17
x1_r1 -0.0
x2_r1 6.830473686658678e-18
x3_r1 6.667843360785852e-18
y0_r1 -0.0
y1_r1 -0.0
y2_r1 3.859759734048396e-17
y3_r1 -0.0
SH0_r1 6.613633252161577e-18
SL0_r1 -0.0
x4_r1 0.0
x5_r1 3.892285799222961e-16
x6_r1 0.0
x7_r1 0.0
y4_r1 -3.892285799222961e-16
y5_r1 -1.9081958235744878e-17
y6_r1 -0.0
y7_r1 -2.749536709423239e-16
SH1_r1 -0.0
SL1_r1 -0.0
x8_r1 1.0755285551056204e-16
x9_r1 -0.0
x10_r1 -1.235990476633475e-17
x11_r1 -1.1492543028346347e-17
y8_r1 -8.933825901280557e-17
y9_r1 -6.245004513516506e-17
y10_r1 5.5077470362263625e-17
y11_r1 2.749536709423239e-16
SH2_r1 -1.1492543028346347e-17
SL2_r1 -0.0
x12_r1 1.5404344466674047e-15
x13_r1 7.563394355258879e-16
x14_r1 1.5994150448506161e-15
x15_r1 7.546047120499111e-16
y12_r1 8.36136715420821e-16
y13_r1 -3.642919299551295e-17
y14_r1 -0.0
y15_r1 -0.0
SH3_r1 7.563394355258879e-16
SL3_r1 -0.0
x16_r1 -0.0
x17_r1 -6.808789643208968e-17
x18_r1 -0.0
x19_r1 -0.0
y16_r1 0.0
y17_r1 0.0
y18_r1 6.808789643208968e-17
y19_r1 1.3617579286417936e-16
SH4_r1 -0.0
SL4_r1 -0.0
x20_r1 -0.0
x21_r1 -0.0
x22_r1 0.0
x23_r1 -0.0
y20_r1 0.0
y21_r1 0.0
y22_r1 -0.0
y23_r1 -0.0
SH5_r1 -0.0
SL5_r1 -0.0
x24_r1 0.0
x25_r1 0.0
x26_r1 2.92300905702092e-16
x27_r1 0.0
y24_r1 0.0
y25_r1 0.0
y26_r1 2.3158558404290375e-16
y27_r1 -0.0
SH6_r1 -0.0
SL6_r1 -0.0
x28_r1 -0.0
x29_r1 -0.0
x30_r1 6.245004513516506e-17
x31_r1 -0.0
y28_r1 -1.1926223897340549e-17
y29_r1 0.0
y30_r1 -0.0
y31_r1 9.020562075079397e-17
SH7_r1 1.5829351718288365e-17
SL7_r1 -0.0
x32_r1 2.862293735361732e-17
x33_r1 -1.0291247021232408e-15
x34_r1 7.190428807923865e-16
x35_r1 -1.702197410802242e-16
y32_r1 8.500145032286355e-17
y33_r1 -0.0
y34_r1 2.255140518769849e-16
y35_r1 -0.0
SH8_r1 0.0
SL8_r1 -0.0
x36_r1 -0.0
x37_r1 -0.0
x38_r1 -0.0
x39_r1 -1.2663481374630692e-16
y36_r1 -1.5525775109992423e-16
y37_r1 -4.7704895589362195e-17
y38_r1 -1.6263032587282567e-17
y39_r1 0.0
SH9_r1 0.0
SL9_r1 -0.0
x40_r1 -0.0
x41_r1 -0.0
x42_r1 -0.0
x43_r1 -0.0
y40_r1 -0.0
y41_r1 -0.0
y42_r1 -0.0
y43_r1 -0.0
SH10_r1 -0.0
SL10_r1 -0.0
x44_r1 -0.0
x45_r1 -0.0
x46_r1 -2.0990154059319366e-16
x47_r1 -0.0
y44_r1 -2.6020852139652106e-18
y45_r1 3.8163916471489756e-16
y46_r1 -9.627715291671279e-17
y47_r1 -9.627715291671279e-17
SH11_r1 -9.627715291671279e-17
SL11_r1 -0.0
x48_r1 -0.0
x49_r1 -0.0
x50_r1 2.9967348047499343e-16
x51_r1 2.9967348047499343e-16
y48_r1 -0.0
y49_r1 -0.0
y50_r1 -0.0
y51_r1 3.204901621867151e-16
SH12_r1 3.204901621867151e-16
SL12_r1 -0.0
x52_r1 -0.0
x53_r1 5.507408223047461e-18
x54_r1 3.8695175536007653e-16
x55_r1 3.480831074764712e-16
y52_r1 -0.0
y53_r1 -0.0
y54_r1 0.0
y55_r1 2.8172993452035833e-16
SH13_r1 3.371326655343676e-16
SL13_r1 -0.0
x56_r1 -0.0
x57_r1 -0.0
x58_r1 6.7220534694101275e-18
x59_r1 4.0549161250957866e-17
y56_r1 5.345116710353537e-17
y57_r1 -1.474514954580286e-17
y58_r1 1.3791051634015616e-16
y59_r1 4.0766001685454967e-17
SH14_r1 4.0766001685454967e-17
SL14_r1 -0.0
x60_r1 1.0
x61_r1 1.0
x62_r1 1.0
x63_r1 0.9999999999999986
y60_r1 -0.0
y61_r1 -0.0
y62_r1 0.0
y63_r1 0.999999999999999
SH15_r1 0.9999999999999986
SL15_r1 -0.0
y0_r2 -0.0
y1_r2 -3.8510861166685117e-16
y2_r2 -0.0
y3_r2 4.5102810375396984e-17
SH0_r2 1.5352302762394743e-16
SL0_r2 -0.0
y4_r2 -0.0
y5_r2 -3.8510861166685117e-16
y6_r2 0.0
y7_r2 6.591949208711867e-17
SH1_r2 6.245004513516506e-17
SL1_r2 2.489328188026718e-16
y8_r2 -0.0
y9_r2 -3.8510861166685117e-16
y10_r2 2.439454888092385e-18
y11_r2 -9.80118763926896e-17
SH2_r2 -1.1752751549742868e-16
SL2_r2 3.126839065448195e-16
y12_r2 -0.0
y13_r2 -3.8163916471489756e-16
y14_r2 0.0
y15_r2 -0.0
SH3_r2 -2.1304572689340162e-17
SL3_r2 -0.0
y16_r2 -0.0
y17_r2 -9.421716878899034e-17
y18_r2 1.734723475976807e-17
y19_r2 0.0
SH4_r2 -0.0
SL4_r2 -0.0
y20_r2 -0.0
y21_r2 -0.0
y22_r2 -0.0
y23_r2 0.0
SH5_r2 -0.0
SL5_r2 -0.0
y24_r2 -0.0
y25_r2 -0.0
y26_r2 -6.002143226879753e-16
y27_r2 -1.2750217548429532e-16
SH6_r2 -1.2750217548429532e-16
SL6_r2 -0.0
y28_r2 -0.0
y29_r2 0.0
y30_r2 -0.0
y31_r2 -0.0
SH7_r2 0.0
SL7_r2 -0.0
y32_r2 -0.0
y33_r2 -0.0
y34_r2 0.0
y35_r2 0.0
SH8_r2 -0.0
SL8_r2 -0.0
y36_r2 -0.0
y37_r2 -4.0549161250957866e-17
y38_r2 -2.8536201179818477e-16
y39_r2 -0.0
SH9_r2 -0.0
SL9_r2 -0.0
y40_r2 -0.0
y41_r2 4.0549161250957866e-17
y42_r2 3.3133218391157016e-16
y43_r2 0.0
SH10_r2 -0.0
SL10_r2 4.0115480381963664e-17
y44_r2 -0.0
y45_r2 2.1597307275911248e-16
y46_r2 0.0
y47_r2 2.636779683484747e-16
SH11_r2 -0.0
SL11_r2 4.0419056990259605e-16
y48_r2 -0.0
y49_r2 1.3270634591222574e-16
y50_r2 -7.91033905045424e-16
y51_r2 -0.0
SH12_r2 0.0
SL12_r2 -0.0
y52_r2 5.843849709696869e-17
y53_r2 3.660266534311063e-16
y54_r2 -0.0
y55_r2 5.681219383824043e-17
SH13_r2 5.681219383824043e-17
SL13_r2 -0.0
y56_r2 -0.0
y57_r2 1.5222198501696482e-16
y58_r2 -0.0
y59_r2 0.0
SH14_r2 -0.0
SL14_r2 -0.0
y60_r2 0.9999999999999996
y61_r2 9.627715291671279e-17
y62_r2 0.0
y63_r2 1.0
SH15_r2 1.0
SL15_r2 9.143890072199623e-16
y0_r3 -0.0
y1_r3 -0.0
y2_r3 -0.0
y3_r3 -0.0
SH0_r3 -0.0
SL0_r3 -0.0
y4_r3 -0.0
y5_r3 -0.0
y6_r3 -0.0
y7_r3 -0.0
SH1_r3 -0.0
SL1_r3 -0.0
y8_r3 -0.0
y9_r3 -0.0
y10_r3 -0.0
y11_r3 -0.0
SH2_r3 -0.0
SL2_r3 -0.0
y12_r3 1.0
y13_r3 -3.0682921481339775e-17
y14_r3 0.0
y15_r3 1.0
SH3_r3 1.0
SL3_r3 1.1687699419393738e-16
y16_r3 -2.3245294578089215e-15
y17_r3 6.271025365656158e-16
y18_r3 -0.0
y19_r3 -0.0
SH4_r3 -3.8163916471489756e-16
SL4_r3 -0.0
y20_r3 -3.0222135558033436e-17
y21_r3 -2.2898349882893854e-16
y22_r3 -3.0222135558033436e-17
y23_r3 -0.0
SH5_r3 -3.0222135558033436e-17
SL5_r3 -3.0222135558033436e-17
y24_r3 -0.0
y25_r3 -2.8362728832220796e-16
y26_r3 -0.0
y27_r3 -0.0
SH6_r3 -0.0
SL6_r3 -0.0
y28_r3 -7.576404781328705e-16
y29_r3 -4.0245584642661925e-16
y30_r3 -7.555533889508359e-18
y31_r3 -0.0
SH7_r3 1.240327285323417e-16
SL7_r3 -0.0
y32_r3 -6.5052130349130266e-18
y33_r3 -0.0
y34_r3 -2.0057740190981832e-18
y35_r3 -0.0
SH8_r3 -0.0
SL8_r3 0.0
y36_r3 6.938893903907228e-17
y37_r3 1.8648277366750676e-16
y38_r3 -7.7021722333370235e-16
y39_r3 -0.0
SH9_r3 -2.688821387764051e-17
SL9_r3 -0.0
y40_r3 -1.3461454173580023e-15
y41_r3 0.0
y42_r3 -2.5153490401663703e-17
y43_r3 -0.0
SH10_r3 -0.0
SL10_r3 -0.0
y44_r3 3.642919299551295e-16
y45_r3 -7.979727989493313e-17
y46_r3 -1.97758476261356e-16
y47_r3 -0.0
SH11_r3 -0.0
SL11_r3 -0.0
y48_r3 2.5240226575462543e-16
y49_r3 -7.025630077706069e-17
y50_r3 -6.049848122469115e-17
y51_r3 5.551115123125783e-17
SH12_r3 5.551115123125783e-17
SL12_r3 -0.0
y52_r3 -4.597017211338539e-16
y53_r3 -7.632783294297951e-17
y54_r3 1.5439038936193583e-16
y55_r3 0.0
SH13_r3 -0.0
SL13_r3 -0.0
y56_r3 2.5847379792054426e-16
y57_r3 -3.0010716134398763e-16
y58_r3 -2.6194324487249787e-16
y59_r3 -0.0
SH14_r3 0.0
SL14_r3 -0.0
y60_r3 0.9999999999999996
y61_r3 -0.0
y62_r3 1.0936889414947526e-17
y63_r3 1.0
SH15_r3 1.0
SL15_r3 -0.0
y0_r4 1.0
y1_r4 1.1813466871402056e-15
y2_r4 0.0
y3_r4 0.9999999999999988
SH0_r4 1.0
SL0_r4 -0.0
y4_r4 -4.73232564246473e-15
y5_r4 6.485697395808288e-16
y6_r4 1.1449174941446927e-15
y7_r4 3.226585665316861e-15
SH1_r4 1.1449174941446927e-15
SL1_r4 -0.0
y8_r4 2.220446049250313e-16
y9_r4 -0.0
y10_r4 -5.204170427930421e-16
y11_r4 -2.992397996059992e-16
SH2_r4 -2.992397996059992e-16
SL2_r4 -0.0
y12_r4 1.0000000000000004
y13_r4 -1.2689502226770344e-15
y14_r4 2.3765711620882257e-16
y15_r4 0.9999999999999996
SH3_r4 0.9999999999999996
SL3_r4 -0.0
y16_r4 -0.0
y17_r4 0.0
y18_r4 -1.7184604433895245e-17
y19_r4 -0.0
SH4_r4 -1.723881454251952e-17
SL4_r4 -0.0
y20_r4 -0.0
y21_r4 4.0766001685454967e-16
y22_r4 -4.586175189613684e-17
y23_r4 -0.0
SH5_r4 -4.586175189613684e-17
SL5_r4 -1.472346550235315e-16
y24_r4 -0.0
y25_r4 -1.8648277366750676e-16
y26_r4 -0.0
y27_r4 0.0
SH6_r4 -0.0
SL6_r4 -5.074066167232161e-17
y28_r4 -0.0
y29_r4 -1.214306433183765e-16
y30_r4 0.0
y31_r4 -0.0
SH7_r4 -7.090682208055199e-17
SL7_r4 -0.0
y32_r4 -0.0
y33_r4 -4.440892098500626e-15
y34_r4 0.0
y35_r4 0.0
SH8_r4 -0.0
SL8_r4 -0.0
y36_r4 -0.0
y37_r4 -0.0
y38_r4 -0.0
y39_r4 -0.0
SH9_r4 -7.555533889508359e-18
SL9_r4 -0.0
y40_r4 -8.673617379884035e-16
y41_r4 1.124100812432971e-15
y42_r4 -0.0
y43_r4 -0.0
SH10_r4 -0.0
SL10_r4 -0.0
y44_r4 -0.0
y45_r4 1.6989448042847854e-16
y46_r4 0.0
y47_r4 0.0
SH11_r4 1.429791614965259e-17
SL11_r4 -0.0
y48_r4 1.0
y49_r4 0.0
y50_r4 -0.0
y51_r4 1.0
SH12_r4 1.0
SL12_r4 -0.0
y52_r4 -0.0
y53_r4 -0.0
y54_r4 -0.0
y55_r4 -0.0
SH13_r4 -0.0
SL13_r4 -0.0
y56_r4 -0.0
y57_r4 -0.0
y58_r4 -0.0
y59_r4 -0.0
SH14_r4 -0.0
SL14_r4 -0.0
y60_r4 1.0000000000000002
y61_r4 -1.3877787807814457e-17
y62_r4 0.0
y63_r4 1.0
SH15_r4 1.0
SL15_r4 -5.551115123125783e-17
y0_r5 -0.0
y1_r5 1.0000000000000222
y2_r5 -0.0
y3_r5 -0.0
SH0_r5 1.0
SL0_r5 -0.0
y4_r5 -0.0
y5_r5 -0.0
y6_r5 -0.0
y7_r5 -0.0
SH1_r5 -0.0
SL1_r5 -0.0
y8_r5 -0.0
y9_r5 0.0
y10_r5 -0.0
y11_r5 -8.604228440844963e-16
SH2_r5 -0.0
SL2_r5 -0.0
y12_r5 0.0
y13_r5 1.0
y14_r5 -0.0
y15_r5 -0.0
SH3_r5 1.0
SL3_r5 0.0
y16_r5 -0.0
y17_r5 3.485926824975394e-15
y18_r5 -0.0
y19_r5 0.0
SH4_r5 6.483528991463317e-16
SL4_r5 -0.0
y20_r5 -3.4867941867133823e-16
y21_r5 0.0
y22_r5 -0.0
y23_r5 0.0
SH5_r5 -0.0
SL5_r5 -0.0
y24_r5 -0.0
y25_r5 3.497202527569243e-15
y26_r5 -0.0
y27_r5 0.0
SH6_r5 -0.0
SL6_r5 -0.0
y28_r5 -3.4867941867133823e-16
y29_r5 -0.0
y30_r5 -0.0
y31_r5 -0.0
SH7_r5 -1.3877787807814457e-17
SL7_r5 -0.0
y32_r5 -3.0253577421035516e-15
y33_r5 0.0
y34_r5 0.0
y35_r5 -2.237793284010081e-16
SH8_r5 -0.0
SL8_r5 -0.0
y36_r5 5.64327230778705e-17
y37_r5 0.0
y38_r5 -0.0
y39_r5 0.0
SH9_r5 -0.0
SL9_r5 1.7333682232612002e-17
y40_r5 -1.326716514427062e-14
y41_r5 0.0
y42_r5 0.0
y43_r5 -3.316791286067655e-15
SH10_r5 -0.0
SL10_r5 -0.0
y44_r5 -0.0
y45_r5 -0.0
y46_r5 0.0
y47_r5 0.0
SH11_r5 -0.0
SL11_r5 0.0
y48_r5 -8.271161533457416e-15
y49_r5 1.0000000000000286
y50_r5 -5.551115123125783e-17
y51_r5 0.0
SH12_r5 0.9999999999999991
SL12_r5 -0.0
y52_r5 -0.0
y53_r5 0.0
y54_r5 -0.0
y55_r5 -0.0
SH13_r5 0.0
SL13_r5 -0.0
y56_r5 -0.0
y57_r5 -0.0
y58_r5 0.0
y59_r5 0.0
SH14_r5 0.0
SL14_r5 -0.0
y60_r5 -6.8833827526759706e-15
y61_r5 1.0000000000000069
y62_r5 -5.551115123125783e-17
y63_r5 -5.551115123125783e-17
SH15_r5 1.0
SL15_r5 3.7539416020138106e-15
y0_r6 -0.0
y1_r6 -0.0
y2_r6 -0.0
y3_r6 -0.0
SH0_r6 0.0
SL0_r6 -0.0
y4_r6 -0.0
y5_r6 -2.7478019859472624e-15
y6_r6 -0.0
y7_r6 4.1494585545365226e-15
SH1_r6 -0.0
SL1_r6 -0.0
y8_r6 -0.0
y9_r6 -0.0
y10_r6 -0.0
y11_r6 -1.5681900222830336e-15
SH2_r6 -3.0253577421035516e-15
SL2_r6 -0.0
y12_r6 -0.0
y13_r6 -6.8833827526759706e-15
y14_r6 -0.0
y15_r6 -0.0
SH3_r6 -6.8833827526759706e-15
SL3_r6 -0.0
y16_r6 -0.0
y17_r6 1.0000000000000224
y18_r6 -2.2369476063155425e-14
y19_r6 -2.2272331548500723e-14
SH4_r6 1.0
SL4_r6 -0.0
y20_r6 -0.0
y21_r6 -1.6930901125533637e-15
y22_r6 0.0
y23_r6 -0.0
SH5_r6 -0.0
SL5_r6 -0.0
y24_r6 -0.0
y25_r6 -0.0
y26_r6 0.0
y27_r6 -0.0
SH6_r6 -0.0
SL6_r6 -0.0
y28_r6 1.6046192152785466e-17
y29_r6 1.0000000000000289
y30_r6 -2.2272331548500723e-14
y31_r6 -2.2325457454952513e-14
SH7_r6 1.0000000000000064
SL7_r6 -0.0
y32_r6 -0.0
y33_r6 -0.0
y34_r6 -0.0
y35_r6 -0.0
SH8_r6 -0.0
SL8_r6 -0.0
y36_r6 -0.0
y37_r6 0.0
y38_r6 0.0
y39_r6 -0.0
SH9_r6 -0.0
SL9_r6 -0.0
y40_r6 -0.0
y41_r6 -0.0
y42_r6 0.0
y43_r6 -0.0
SH10_r6 0.0
SL10_r6 -0.0
y44_r6 -0.0
y45_r6 1.734723475976807e-17
y46_r6 -0.0
y47_r6 -0.0
SH11_r6 -5.551115123125783e-17
SL11_r6 -0.0
y48_r6 0.0
y49_r6 -1.1102230246251565e-15
y50_r6 -3.8163916471489756e-17
y51_r6 -0.0
SH12_r6 -3.8163916471489756e-17
SL12_r6 -0.0
y52_r6 -0.0
y53_r6 -0.0
y54_r6 -0.0
y55_r6 -0.0
SH13_r6 0.0
SL13_r6 -0.0
y56_r6 -0.0
y57_r6 -0.0
y58_r6 4.038436252074007e-15
y59_r6 -0.0
SH14_r6 -0.0
SL14_r6 -0.0
y60_r6 -1.4432899320127035e-15
y61_r6 4.218847493575595e-15
y62_r6 3.989863994746656e-15
y63_r6 6.314393452555578e-16
SH15_r6 -0.0
SL15_r6 -0.0
y0_r7 -0.0
y1_r7 -0.0
y2_r7 -0.0
y3_r7 -0.0
SH0_r7 -0.0
SL0_r7 -0.0
y4_r7 4.472333961502706e-19
y5_r7 9.215718466126788e-18
y6_r7 -0.0
y7_r7 -0.0
SH1_r7 7.37257477290143e-18
SL1_r7 -0.0
y8_r7 -0.0
y9_r7 -0.0
y10_r7 -0.0
y11_r7 -0.0
SH2_r7 -0.0
SL2_r7 -0.0
y12_r7 -5.134781488891349e-16
y13_r7 -1.1657341758564144e-15
y14_r7 0.0
y15_r7 -3.677613769070831e-16
SH3_r7 -3.7470027081099033e-16
SL3_r7 -0.0
y16_r7 -0.0
y17_r7 -2.853273173286652e-14
y18_r7 0.0
y19_r7 -9.658940314238862e-15
SH4_r7 -9.658940314238862e-15
SL4_r7 -0.0
y20_r7 -1.429412144204889e-14
y21_r7 1.0000000000000442
y22_r7 -1.3877787807814457e-17
y23_r7 -7.66053886991358e-15
SH5_r7 1.0000000000000224
SL5_r7 -0.0
y24_r7 -0.0
y25_r7 -0.0
y26_r7 -1.0408340855860843e-17
y27_r7 -0.0
SH6_r7 1.214306433183765e-17
SL6_r7 -0.0
y28_r7 -7.854827899222983e-15
y29_r7 -1.1157741397482823e-14
y30_r7 -0.0
y31_r7 -5.745404152435185e-15
SH7_r7 -5.745404152435185e-15
SL7_r7 1.0824674490095276e-15
y32_r7 -0.0
y33_r7 -0.0
y34_r7 -0.0
y35_r7 -0.0
SH8_r7 -0.0
SL8_r7 -0.0
y36_r7 1.6153745008296028e-14
y37_r7 -3.855249453010856e-14
y38_r7 0.0
y39_r7 -0.0
SH9_r7 -2.2341720487539796e-14
SL9_r7 -0.0
y40_r7 -0.0
y41_r7 -2.341182803178299e-14
y42_r7 -0.0
y43_r7 -0.0
SH10_r7 0.0
SL10_r7 -0.0
y44_r7 -1.995625886763719e-14
y45_r7 -0.0
y46_r7 -0.0
y47_r7 0.0
SH11_r7 3.975986206938842e-15
SL11_r7 -0.0
y48_r7 1.0255685189974884e-14
y49_r7 -0.0
y50_r7 1.3530843112619095e-16
y51_r7 -0.0
SH12_r7 1.6306400674181987e-16
SL12_r7 -3.965577866082981e-15
y52_r7 0.0
y53_r7 -2.2474209993017524e-14
y54_r7 1.3877787807814457e-16
y55_r7 0.0
SH13_r7 -2.2272331548500723e-14
SL13_r7 -0.0
y56_r7 -0.0
y57_r7 -0.0
y58_r7 -0.0
y59_r7 -0.0
SH14_r7 -0.0
SL14_r7 -0.0
y60_r7 -0.0
y61_r7 5.48172618408671e-16
y62_r7 -0.0
y63_r7 -0.0
SH15_r7 1.5439038936193583e-16
SL15_r7 -0.0
y0_r8 -0.0
y1_r8 2.5673907444456745e-16
y2_r8 -0.0
y3_r8 -0.0
SH0_r8 -0.0
SL0_r8 -0.0
y4_r8 -2.1094237467877974e-15
y5_r8 -2.3314683517128287e-14
y6_r8 -0.0
y7_r8 0.0
SH1_r8 -1.429412144204889e-14
SL1_r8 -0.0
y8_r8 -4.350686477749832e-15
y9_r8 -7.868705687030797e-15
y10_r8 0.0
y11_r8 -0.0
SH2_r8 -0.0
SL2_r8 2.4091839634365897e-14
y12_r8 -5.065392549852277e-15
y13_r8 -0.0
y14_r8 -0.0
y15_r8 -0.0
SH3_r8 -0.0
SL3_r8 -0.0
y16_r8 -5.828670879282072e-16
y17_r8 6.26339258236186e-14
y18_r8 5.828670879282072e-16
y19_r8 -0.0
SH4_r8 0.0
SL4_r8 -0.0
y20_r8 -0.0
y21_r8 1.0000000000000975
y22_r8 -1.5237811012980274e-14
y23_r8 1.0
SH5_r8 1.0000000000000429
SL5_r8 -0.0
y24_r8 -1.509903313490213e-14
y25_r8 -0.0
y26_r8 -0.0
y27_r8 -0.0
SH6_r8 -1.2476131239225197e-14
SL6_r8 -0.0
y28_r8 -0.0
y29_r8 -1.532107773982716e-14
y30_r8 -0.0
y31_r8 -0.0
SH7_r8 2.258523229548004e-14
SL7_r8 -0.0
y32_r8 -0.0
y33_r8 0.0
y34_r8 0.0
y35_r8 0.0
SH8_r8 0.0
SL8_r8 -0.0
y36_r8 -1.9081958235744878e-16
y37_r8 0.0
y38_r8 -0.0
y39_r8 0.0
SH9_r8 -0.0
SL9_r8 -0.0
y40_r8 4.9439619065339e-17
y41_r8 -0.0
y42_r8 0.0
y43_r8 -0.0
SH10_r8 -0.0
SL10_r8 -0.0
y44_r8 -1.3877787807814457e-16
y45_r8 -1.3877787807814457e-17
y46_r8 -0.0
y47_r8 -0.0
SH11_r8 -0.0
SL11_r8 -0.0
y48_r8 0.0
y49_r8 -0.0
y50_r8 -1.5959455978986625e-16
y51_r8 0.0
SH12_r8 -1.6046192152785466e-17
SL12_r8 -0.0
y52_r8 0.0
y53_r8 -2.2967738821932926e-15
y54_r8 0.0
y55_r8 0.0
SH13_r8 -7.632783294297951e-15
SL13_r8 -0.0
y56_r8 0.0
y57_r8 -0.0
y58_r8 0.0
y59_r8 -0.0
SH14_r8 -0.0
SL14_r8 0.0
y60_r8 0.0
y61_r8 0.0
y62_r8 -0.0
y63_r8 -0.0
SH15_r8 -0.0
SL15_r8 -0.0
y0_r9 -0.0
y1_r9 -0.0
y2_r9 -0.0
y3_r9 2.3418766925686896e-16
SH0_r9 -2.1098574276567916e-15
SL0_r9 -0.0
y4_r9 -1.9498291869979312e-14
y5_r9 2.3328561304936102e-14
y6_r9 -3.83026943495679e-15
y7_r9 3.5214886562329184e-14
SH1_r9 0.0
SL1_r9 -0.0
y8_r9 0.0
y9_r9 -0.0
y10_r9 -0.0
y11_r9 -0.0
SH2_r9 0.0
SL2_r9 -0.0
y12_r9 -0.0
y13_r9 -0.0
y14_r9 -0.0
y15_r9 -0.0
SH3_r9 -0.0
SL3_r9 0.0
y16_r9 -0.0
y17_r9 -8.174017018802715e-15
y18_r9 -1.5515366769136563e-14
y19_r9 -0.0
SH4_r9 -7.896461262646426e-15
SL4_r9 -0.0
y20_r9 -0.0
y21_r9 0.9999999999999606
y22_r9 -1.5210055437364645e-14
y23_r9 0.9999999999999528
SH5_r9 1.0
SL5_r9 -0.0
y24_r9 -1.3877787807814457e-17
y25_r9 -0.0
y26_r9 -0.0
y27_r9 -0.0
SH6_r9 6.938893903907228e-18
SL6_r9 -0.0
y28_r9 -0.0
y29_r9 -2.282896094385478e-15
y30_r9 -0.0
y31_r9 -2.3037127760972e-15
SH7_r9 -2.2898349882893854e-15
SL7_r9 -0.0
y32_r9 -0.0
y33_r9 0.0
y34_r9 -0.0
y35_r9 -0.0
SH8_r9 0.0
SL8_r9 -0.0
y36_r9 -1.6237011735142914e-15
y37_r9 -0.0
y38_r9 -0.0
y39_r9 -0.0
SH9_r9 -4.218847493575595e-15
SL9_r9 -0.0
y40_r9 0.0
y41_r9 -0.0
y42_r9 -0.0
y43_r9 -0.0
SH10_r9 0.0
SL10_r9 -0.0
y44_r9 -1.5959455978986625e-16
y45_r9 -1.4224732503009818e-16
y46_r9 -0.0
y47_r9 -0.0
SH11_r9 0.0
SL11_r9 -0.0
y48_r9 0.0
y49_r9 -0.0
y50_r9 0.0
y51_r9 -0.0
SH12_r9 -0.0
SL12_r9 -0.0
y52_r9 1.0
y53_r9 1.0
y54_r9 1.0
y55_r9 -0.0
SH13_r9 1.0
SL13_r9 1.0
y56_r9 0.0
y57_r9 -0.0
y58_r9 -0.0
y59_r9 -0.0
SH14_r9 -0.0
SL14_r9 -0.0
y60_r9 0.0
y61_r9 0.0
y62_r9 -0.0
y63_r9 -0.0
SH15_r9 -0.0
SL15_r9 -0.0
